(set-logic QF_SLAH)

(declare-datatypes ((data_t 0)) (((c_data_t (sz Int)))))

(declare-heap (Int data_t))

(define-fun hck ((?x Int) (?y Int) (?v Int)) Bool
	(and
		(>= (- ?y ?x) 2) (<= (- ?y ?x) ?v)
		(sep (pto ?x (c_data_t (- ?y ?x))) (blk (+ ?x 1) ?y))
))

(define-fun-rec hls ((?x Int) (?y Int) (?v Int)) Bool
	(or
		(and (= ?x ?y) (_ emp Int data_t))
		(exists ((?w Int)) (sep (hck ?x ?w ?v) (hls ?w ?y ?v)))
))

(declare-const x0 Int)
(declare-const x1 Int)
(declare-const v0 Int)
(declare-const x2 Int)
(declare-const x3 Int)
(declare-const x4 Int)
(declare-const x5 Int)
(declare-const x6 Int)
(declare-const x7 Int)
(declare-const v6 Int)
(declare-const x8 Int)
(declare-const x9 Int)
(declare-const x10 Int)
(declare-const x11 Int)
(declare-const x12 Int)
(declare-const x13 Int)
(declare-const x14 Int)
(declare-const x15 Int)
(declare-const v14 Int)
(declare-const x16 Int)
(declare-const x17 Int)
(declare-const x18 Int)
(declare-const x19 Int)
(declare-const v18 Int)
(declare-const x20 Int)
(declare-const x21 Int)
(declare-const x22 Int)
(declare-const x23 Int)
(declare-const x24 Int)
(declare-const x25 Int)
(declare-const v24 Int)
(declare-const x26 Int)
(declare-const x27 Int)
(declare-const x28 Int)
(declare-const x29 Int)
(declare-const v28 Int)
(declare-const x30 Int)
(declare-const x31 Int)
(declare-const x32 Int)
(declare-const x33 Int)
(declare-const v32 Int)
(declare-const x34 Int)
(declare-const x35 Int)
(declare-const v34 Int)
(declare-const x36 Int)
(declare-const x37 Int)
(declare-const x38 Int)
(declare-const x39 Int)
(declare-const x40 Int)
(declare-const x41 Int)
(declare-const x42 Int)
(declare-const x43 Int)
(declare-const v42 Int)
(declare-const x44 Int)
(declare-const x45 Int)
(declare-const x46 Int)
(declare-const x47 Int)
(declare-const v46 Int)
(declare-const x48 Int)
(declare-const x49 Int)
(declare-const x50 Int)
(declare-const x51 Int)
(declare-const x52 Int)
(declare-const x53 Int)
(declare-const v52 Int)
(declare-const x54 Int)
(declare-const x55 Int)
(declare-const x56 Int)
(declare-const x57 Int)
(declare-const x58 Int)
(declare-const x59 Int)
(declare-const x60 Int)
(declare-const x61 Int)
(declare-const v60 Int)
(declare-const x62 Int)
(declare-const x63 Int)
(declare-const x64 Int)
(declare-const x65 Int)
(declare-const v64 Int)
(declare-const x66 Int)
(declare-const x67 Int)
(declare-const x68 Int)
(declare-const x69 Int)
(declare-const x70 Int)
(declare-const x71 Int)
(declare-const x72 Int)
(declare-const x73 Int)
(declare-const v72 Int)
(declare-const x74 Int)
(declare-const x75 Int)
(declare-const v74 Int)
(declare-const x76 Int)
(declare-const x77 Int)
(declare-const x78 Int)
(declare-const x79 Int)
(declare-const x80 Int)
(declare-const x81 Int)
(declare-const v80 Int)
(declare-const x82 Int)
(declare-const x83 Int)
(declare-const x84 Int)
(declare-const x85 Int)
(declare-const x86 Int)
(declare-const x87 Int)
(declare-const x88 Int)
(declare-const x89 Int)
(declare-const x90 Int)
(declare-const x91 Int)
(declare-const x92 Int)
(declare-const x93 Int)
(declare-const v92 Int)
(declare-const x94 Int)
(declare-const x95 Int)
(declare-const v94 Int)
(declare-const x96 Int)
(declare-const x97 Int)
(declare-const v96 Int)
(declare-const x98 Int)
(declare-const x99 Int)
(declare-const x100 Int)
(declare-const x101 Int)
(declare-const x102 Int)
(declare-const x103 Int)
(declare-const v102 Int)
(declare-const x104 Int)
(declare-const x105 Int)
(declare-const v104 Int)
(declare-const x106 Int)
(declare-const x107 Int)
(declare-const x108 Int)
(declare-const x109 Int)
(declare-const v108 Int)
(declare-const x110 Int)
(declare-const x111 Int)
(declare-const x112 Int)
(declare-const x113 Int)
(declare-const x114 Int)
(declare-const x115 Int)
(declare-const v114 Int)
(declare-const x116 Int)
(declare-const x117 Int)
(declare-const v116 Int)
(declare-const x118 Int)
(declare-const x119 Int)
(declare-const x120 Int)
(declare-const x121 Int)
(declare-const x122 Int)
(declare-const x123 Int)
(declare-const x124 Int)
(declare-const x125 Int)
(declare-const x126 Int)
(declare-const x127 Int)
(declare-const v126 Int)
(declare-const x128 Int)
(declare-const x129 Int)
(declare-const x130 Int)
(declare-const x131 Int)
(declare-const x132 Int)
(declare-const x133 Int)
(declare-const v132 Int)
(declare-const x134 Int)
(declare-const x135 Int)
(declare-const v134 Int)
(declare-const x136 Int)
(declare-const x137 Int)
(declare-const v136 Int)
(declare-const x138 Int)
(declare-const x139 Int)
(declare-const v138 Int)
(declare-const x140 Int)
(declare-const x141 Int)
(declare-const x142 Int)
(declare-const x143 Int)
(declare-const x144 Int)
(declare-const x145 Int)
(declare-const v144 Int)
(declare-const x146 Int)
(declare-const x147 Int)
(declare-const x148 Int)
(declare-const x149 Int)

(assert(and
(= x121 x65) (< x85 x46) (< x22 x149) (< x55 x3) (< x128 x32) (= x22 x31) (= x108 x76) (< x34 x29) (< x16 x134) (< x1 x129) (= x114 x57) (distinct x36 x84) (distinct x86 x46) (distinct x133 x95) (distinct x84 x37) (< x55 x33) (distinct x47 x11) 
(sep
(hls x0 x1 v0)
(blk x2 x3)
(blk x4 x5)
(hls x6 x7 v6)
(blk x8 x9)
(blk x10 x11)
(blk x12 x13)
(hls x14 x15 v14)
(pto x16 (c_data_t x17))
(hls x18 x19 v18)
(pto x20 (c_data_t x21))
(blk x22 x23)
(hls x24 x25 v24)
(pto x26 (c_data_t x27))
(hls x28 x29 v28)
(pto x30 (c_data_t x31))
(hls x32 x33 v32)
(hls x34 x35 v34)
(pto x36 (c_data_t x37))
(pto x38 (c_data_t x39))
(pto x40 (c_data_t x41))
(hls x42 x43 v42)
(blk x44 x45)
(hls x46 x47 v46)
(pto x48 (c_data_t x49))
(blk x50 x51)
(hls x52 x53 v52)
(blk x54 x55)
(blk x56 x57)
(pto x58 (c_data_t x59))
(hls x60 x61 v60)
(pto x62 (c_data_t x63))
(hls x64 x65 v64)
(blk x66 x67)
(pto x68 (c_data_t x69))
(pto x70 (c_data_t x71))
(hls x72 x73 v72)
(hls x74 x75 v74)
(blk x76 x77)
(blk x78 x79)
(hls x80 x81 v80)
(blk x82 x83)
(pto x84 (c_data_t x85))
(blk x86 x87)
(pto x88 (c_data_t x89))
(pto x90 (c_data_t x91))
(hls x92 x93 v92)
(hls x94 x95 v94)
(hls x96 x97 v96)
(blk x98 x99)
(blk x100 x101)
(hls x102 x103 v102)
(hls x104 x105 v104)
(pto x106 (c_data_t x107))
(hls x108 x109 v108)
(blk x110 x111)
(blk x112 x113)
(hls x114 x115 v114)
(hls x116 x117 v116)
(pto x118 (c_data_t x119))
(blk x120 x121)
(blk x122 x123)
(blk x124 x125)
(hls x126 x127 v126)
(blk x128 x129)
(pto x130 (c_data_t x131))
(hls x132 x133 v132)
(hls x134 x135 v134)
(hls x136 x137 v136)
(hls x138 x139 v138)
(blk x140 x141)
(blk x142 x143)
(hls x144 x145 v144)
(pto x146 (c_data_t x147))
(pto x148 (c_data_t x149))
)))

(check-sat)